\ LP format - for model browsing. Use MPS format to capture full model detail.
Minimize
  1.414213562373095 x[0,_1,_0] + 1.414213562373095 x[0,_1,_1]
   + 1.414213562373095 x[0,_1,_2] + 1.414213562373095 x[0,_1,_3]
   + x[0,_2,_0] + x[0,_2,_1] + x[0,_2,_2] + x[0,_2,_3]
   + 1.414213562373095 x[0,_3,_0] + 1.414213562373095 x[0,_3,_1]
   + 1.414213562373095 x[0,_3,_2] + 1.414213562373095 x[0,_3,_3]
   + 2.23606797749979 x[0,_4,_0] + 2.23606797749979 x[0,_4,_1]
   + 2.23606797749979 x[0,_4,_2] + 2.23606797749979 x[0,_4,_3]
   + 2 x[0,_5,_0] + 2 x[0,_5,_1] + 2 x[0,_5,_2] + 2 x[0,_5,_3]
   + 2.23606797749979 x[0,_6,_0] + 2.23606797749979 x[0,_6,_1]
   + 2.23606797749979 x[0,_6,_2] + 2.23606797749979 x[0,_6,_3]
   + 1.414213562373095 x[1,_0,_0] + 1.414213562373095 x[1,_0,_1]
   + 1.414213562373095 x[1,_0,_2] + 1.414213562373095 x[1,_0,_3]
   + x[1,_2,_0] + x[1,_2,_1] + x[1,_2,_2] + x[1,_2,_3] + 2 x[1,_3,_0]
   + 2 x[1,_3,_1] + 2 x[1,_3,_2] + 2 x[1,_3,_3] + x[1,_4,_0] + x[1,_4,_1]
   + x[1,_4,_2] + x[1,_4,_3] + 1.414213562373095 x[1,_5,_0]
   + 1.414213562373095 x[1,_5,_1] + 1.414213562373095 x[1,_5,_2]
   + 1.414213562373095 x[1,_5,_3] + 2.23606797749979 x[1,_6,_0]
   + 2.23606797749979 x[1,_6,_1] + 2.23606797749979 x[1,_6,_2]
   + 2.23606797749979 x[1,_6,_3] + x[2,_0,_0] + x[2,_0,_1] + x[2,_0,_2]
   + x[2,_0,_3] + x[2,_1,_0] + x[2,_1,_1] + x[2,_1,_2] + x[2,_1,_3]
   + x[2,_3,_0] + x[2,_3,_1] + x[2,_3,_2] + x[2,_3,_3]
   + 1.414213562373095 x[2,_4,_0] + 1.414213562373095 x[2,_4,_1]
   + 1.414213562373095 x[2,_4,_2] + 1.414213562373095 x[2,_4,_3]
   + x[2,_5,_0] + x[2,_5,_1] + x[2,_5,_2] + x[2,_5,_3]
   + 1.414213562373095 x[2,_6,_0] + 1.414213562373095 x[2,_6,_1]
   + 1.414213562373095 x[2,_6,_2] + 1.414213562373095 x[2,_6,_3]
   + 1.414213562373095 x[3,_0,_0] + 1.414213562373095 x[3,_0,_1]
   + 1.414213562373095 x[3,_0,_2] + 1.414213562373095 x[3,_0,_3]
   + 2 x[3,_1,_0] + 2 x[3,_1,_1] + 2 x[3,_1,_2] + 2 x[3,_1,_3] + x[3,_2,_0]
   + x[3,_2,_1] + x[3,_2,_2] + x[3,_2,_3] + 2.23606797749979 x[3,_4,_0]
   + 2.23606797749979 x[3,_4,_1] + 2.23606797749979 x[3,_4,_2]
   + 2.23606797749979 x[3,_4,_3] + 1.414213562373095 x[3,_5,_0]
   + 1.414213562373095 x[3,_5,_1] + 1.414213562373095 x[3,_5,_2]
   + 1.414213562373095 x[3,_5,_3] + x[3,_6,_0] + x[3,_6,_1] + x[3,_6,_2]
   + x[3,_6,_3] + 2.23606797749979 x[4,_0,_0] + 2.23606797749979 x[4,_0,_1]
   + 2.23606797749979 x[4,_0,_2] + 2.23606797749979 x[4,_0,_3] + x[4,_1,_0]
   + x[4,_1,_1] + x[4,_1,_2] + x[4,_1,_3] + 1.414213562373095 x[4,_2,_0]
   + 1.414213562373095 x[4,_2,_1] + 1.414213562373095 x[4,_2,_2]
   + 1.414213562373095 x[4,_2,_3] + 2.23606797749979 x[4,_3,_0]
   + 2.23606797749979 x[4,_3,_1] + 2.23606797749979 x[4,_3,_2]
   + 2.23606797749979 x[4,_3,_3] + x[4,_5,_0] + x[4,_5,_1] + x[4,_5,_2]
   + x[4,_5,_3] + 2 x[4,_6,_0] + 2 x[4,_6,_1] + 2 x[4,_6,_2] + 2 x[4,_6,_3]
   + 2 x[5,_0,_0] + 2 x[5,_0,_1] + 2 x[5,_0,_2] + 2 x[5,_0,_3]
   + 1.414213562373095 x[5,_1,_0] + 1.414213562373095 x[5,_1,_1]
   + 1.414213562373095 x[5,_1,_2] + 1.414213562373095 x[5,_1,_3]
   + x[5,_2,_0] + x[5,_2,_1] + x[5,_2,_2] + x[5,_2,_3]
   + 1.414213562373095 x[5,_3,_0] + 1.414213562373095 x[5,_3,_1]
   + 1.414213562373095 x[5,_3,_2] + 1.414213562373095 x[5,_3,_3]
   + x[5,_4,_0] + x[5,_4,_1] + x[5,_4,_2] + x[5,_4,_3] + x[5,_6,_0]
   + x[5,_6,_1] + x[5,_6,_2] + x[5,_6,_3] + 2.23606797749979 x[6,_0,_0]
   + 2.23606797749979 x[6,_0,_1] + 2.23606797749979 x[6,_0,_2]
   + 2.23606797749979 x[6,_0,_3] + 2.23606797749979 x[6,_1,_0]
   + 2.23606797749979 x[6,_1,_1] + 2.23606797749979 x[6,_1,_2]
   + 2.23606797749979 x[6,_1,_3] + 1.414213562373095 x[6,_2,_0]
   + 1.414213562373095 x[6,_2,_1] + 1.414213562373095 x[6,_2,_2]
   + 1.414213562373095 x[6,_2,_3] + x[6,_3,_0] + x[6,_3,_1] + x[6,_3,_2]
   + x[6,_3,_3] + 2 x[6,_4,_0] + 2 x[6,_4,_1] + 2 x[6,_4,_2] + 2 x[6,_4,_3]
   + x[6,_5,_0] + x[6,_5,_1] + x[6,_5,_2] + x[6,_5,_3]
Subject To
 R0: x[0,_1,_0] + x[0,_2,_0] + x[0,_3,_0] + x[0,_4,_0] + x[0,_5,_0]
   + x[0,_6,_0] - x[1,_0,_0] - x[2,_0,_0] - x[3,_0,_0] - x[4,_0,_0]
   - x[5,_0,_0] - x[6,_0,_0] = 0
 R1: x[0,_1,_1] + x[0,_2,_1] + x[0,_3,_1] + x[0,_4,_1] + x[0,_5,_1]
   + x[0,_6,_1] - x[1,_0,_1] - x[2,_0,_1] - x[3,_0,_1] - x[4,_0,_1]
   - x[5,_0,_1] - x[6,_0,_1] = 0
 R2: x[0,_1,_2] + x[0,_2,_2] + x[0,_3,_2] + x[0,_4,_2] + x[0,_5,_2]
   + x[0,_6,_2] - x[1,_0,_2] - x[2,_0,_2] - x[3,_0,_2] - x[4,_0,_2]
   - x[5,_0,_2] - x[6,_0,_2] = 0
 R3: x[0,_1,_3] + x[0,_2,_3] + x[0,_3,_3] + x[0,_4,_3] + x[0,_5,_3]
   + x[0,_6,_3] - x[1,_0,_3] - x[2,_0,_3] - x[3,_0,_3] - x[4,_0,_3]
   - x[5,_0,_3] - x[6,_0,_3] = 0
 R4: - x[0,_1,_0] - x[0,_2,_0] - x[0,_3,_0] - x[0,_4,_0] - x[0,_5,_0]
   - x[0,_6,_0] + x[1,_0,_0] + x[2,_0,_0] + x[3,_0,_0] + x[4,_0,_0]
   + x[5,_0,_0] + x[6,_0,_0] = 0
 R5: - x[0,_1,_1] - x[0,_2,_1] - x[0,_3,_1] - x[0,_4,_1] - x[0,_5,_1]
   - x[0,_6,_1] + x[1,_0,_1] + x[2,_0,_1] + x[3,_0,_1] + x[4,_0,_1]
   + x[5,_0,_1] + x[6,_0,_1] = 0
 R6: - x[0,_1,_2] - x[0,_2,_2] - x[0,_3,_2] - x[0,_4,_2] - x[0,_5,_2]
   - x[0,_6,_2] + x[1,_0,_2] + x[2,_0,_2] + x[3,_0,_2] + x[4,_0,_2]
   + x[5,_0,_2] + x[6,_0,_2] = 0
 R7: - x[0,_1,_3] - x[0,_2,_3] - x[0,_3,_3] - x[0,_4,_3] - x[0,_5,_3]
   - x[0,_6,_3] + x[1,_0,_3] + x[2,_0,_3] + x[3,_0,_3] + x[4,_0,_3]
   + x[5,_0,_3] + x[6,_0,_3] = 0
 R8: x[0,_1,_0] + x[1,_0,_0] <= 1
 R9: x[0,_2,_0] + x[2,_0,_0] <= 1
 R10: x[0,_3,_0] + x[3,_0,_0] <= 1
 R11: x[0,_4,_0] + x[4,_0,_0] <= 1
 R12: x[0,_5,_0] + x[5,_0,_0] <= 1
 R13: x[0,_6,_0] + x[6,_0,_0] <= 1
 R14: x[0,_1,_0] + x[1,_0,_0] <= 1
 R15: x[1,_2,_0] + x[2,_1,_0] <= 1
 R16: x[1,_3,_0] + x[3,_1,_0] <= 1
 R17: x[1,_4,_0] + x[4,_1,_0] <= 1
 R18: x[1,_5,_0] + x[5,_1,_0] <= 1
 R19: x[1,_6,_0] + x[6,_1,_0] <= 1
 R20: x[0,_2,_0] + x[2,_0,_0] <= 1
 R21: x[1,_2,_0] + x[2,_1,_0] <= 1
 R22: x[2,_3,_0] + x[3,_2,_0] <= 1
 R23: x[2,_4,_0] + x[4,_2,_0] <= 1
 R24: x[2,_5,_0] + x[5,_2,_0] <= 1
 R25: x[2,_6,_0] + x[6,_2,_0] <= 1
 R26: x[0,_3,_0] + x[3,_0,_0] <= 1
 R27: x[1,_3,_0] + x[3,_1,_0] <= 1
 R28: x[2,_3,_0] + x[3,_2,_0] <= 1
 R29: x[3,_4,_0] + x[4,_3,_0] <= 1
 R30: x[3,_5,_0] + x[5,_3,_0] <= 1
 R31: x[3,_6,_0] + x[6,_3,_0] <= 1
 R32: x[0,_4,_0] + x[4,_0,_0] <= 1
 R33: x[1,_4,_0] + x[4,_1,_0] <= 1
 R34: x[2,_4,_0] + x[4,_2,_0] <= 1
 R35: x[3,_4,_0] + x[4,_3,_0] <= 1
 R36: x[4,_5,_0] + x[5,_4,_0] <= 1
 R37: x[4,_6,_0] + x[6,_4,_0] <= 1
 R38: x[0,_5,_0] + x[5,_0,_0] <= 1
 R39: x[1,_5,_0] + x[5,_1,_0] <= 1
 R40: x[2,_5,_0] + x[5,_2,_0] <= 1
 R41: x[3,_5,_0] + x[5,_3,_0] <= 1
 R42: x[4,_5,_0] + x[5,_4,_0] <= 1
 R43: x[5,_6,_0] + x[6,_5,_0] <= 1
 R44: x[0,_6,_0] + x[6,_0,_0] <= 1
 R45: x[1,_6,_0] + x[6,_1,_0] <= 1
 R46: x[2,_6,_0] + x[6,_2,_0] <= 1
 R47: x[3,_6,_0] + x[6,_3,_0] <= 1
 R48: x[4,_6,_0] + x[6,_4,_0] <= 1
 R49: x[5,_6,_0] + x[6,_5,_0] <= 1
 R50: x[0,_1,_1] + x[1,_0,_1] <= 1
 R51: x[0,_2,_1] + x[2,_0,_1] <= 1
 R52: x[0,_3,_1] + x[3,_0,_1] <= 1
 R53: x[0,_4,_1] + x[4,_0,_1] <= 1
 R54: x[0,_5,_1] + x[5,_0,_1] <= 1
 R55: x[0,_6,_1] + x[6,_0,_1] <= 1
 R56: x[0,_1,_1] + x[1,_0,_1] <= 1
 R57: x[1,_2,_1] + x[2,_1,_1] <= 1
 R58: x[1,_3,_1] + x[3,_1,_1] <= 1
 R59: x[1,_4,_1] + x[4,_1,_1] <= 1
 R60: x[1,_5,_1] + x[5,_1,_1] <= 1
 R61: x[1,_6,_1] + x[6,_1,_1] <= 1
 R62: x[0,_2,_1] + x[2,_0,_1] <= 1
 R63: x[1,_2,_1] + x[2,_1,_1] <= 1
 R64: x[2,_3,_1] + x[3,_2,_1] <= 1
 R65: x[2,_4,_1] + x[4,_2,_1] <= 1
 R66: x[2,_5,_1] + x[5,_2,_1] <= 1
 R67: x[2,_6,_1] + x[6,_2,_1] <= 1
 R68: x[0,_3,_1] + x[3,_0,_1] <= 1
 R69: x[1,_3,_1] + x[3,_1,_1] <= 1
 R70: x[2,_3,_1] + x[3,_2,_1] <= 1
 R71: x[3,_4,_1] + x[4,_3,_1] <= 1
 R72: x[3,_5,_1] + x[5,_3,_1] <= 1
 R73: x[3,_6,_1] + x[6,_3,_1] <= 1
 R74: x[0,_4,_1] + x[4,_0,_1] <= 1
 R75: x[1,_4,_1] + x[4,_1,_1] <= 1
 R76: x[2,_4,_1] + x[4,_2,_1] <= 1
 R77: x[3,_4,_1] + x[4,_3,_1] <= 1
 R78: x[4,_5,_1] + x[5,_4,_1] <= 1
 R79: x[4,_6,_1] + x[6,_4,_1] <= 1
 R80: x[0,_5,_1] + x[5,_0,_1] <= 1
 R81: x[1,_5,_1] + x[5,_1,_1] <= 1
 R82: x[2,_5,_1] + x[5,_2,_1] <= 1
 R83: x[3,_5,_1] + x[5,_3,_1] <= 1
 R84: x[4,_5,_1] + x[5,_4,_1] <= 1
 R85: x[5,_6,_1] + x[6,_5,_1] <= 1
 R86: x[0,_6,_1] + x[6,_0,_1] <= 1
 R87: x[1,_6,_1] + x[6,_1,_1] <= 1
 R88: x[2,_6,_1] + x[6,_2,_1] <= 1
 R89: x[3,_6,_1] + x[6,_3,_1] <= 1
 R90: x[4,_6,_1] + x[6,_4,_1] <= 1
 R91: x[5,_6,_1] + x[6,_5,_1] <= 1
 R92: x[0,_1,_2] + x[1,_0,_2] <= 1
 R93: x[0,_2,_2] + x[2,_0,_2] <= 1
 R94: x[0,_3,_2] + x[3,_0,_2] <= 1
 R95: x[0,_4,_2] + x[4,_0,_2] <= 1
 R96: x[0,_5,_2] + x[5,_0,_2] <= 1
 R97: x[0,_6,_2] + x[6,_0,_2] <= 1
 R98: x[0,_1,_2] + x[1,_0,_2] <= 1
 R99: x[1,_2,_2] + x[2,_1,_2] <= 1
 R100: x[1,_3,_2] + x[3,_1,_2] <= 1
 R101: x[1,_4,_2] + x[4,_1,_2] <= 1
 R102: x[1,_5,_2] + x[5,_1,_2] <= 1
 R103: x[1,_6,_2] + x[6,_1,_2] <= 1
 R104: x[0,_2,_2] + x[2,_0,_2] <= 1
 R105: x[1,_2,_2] + x[2,_1,_2] <= 1
 R106: x[2,_3,_2] + x[3,_2,_2] <= 1
 R107: x[2,_4,_2] + x[4,_2,_2] <= 1
 R108: x[2,_5,_2] + x[5,_2,_2] <= 1
 R109: x[2,_6,_2] + x[6,_2,_2] <= 1
 R110: x[0,_3,_2] + x[3,_0,_2] <= 1
 R111: x[1,_3,_2] + x[3,_1,_2] <= 1
 R112: x[2,_3,_2] + x[3,_2,_2] <= 1
 R113: x[3,_4,_2] + x[4,_3,_2] <= 1
 R114: x[3,_5,_2] + x[5,_3,_2] <= 1
 R115: x[3,_6,_2] + x[6,_3,_2] <= 1
 R116: x[0,_4,_2] + x[4,_0,_2] <= 1
 R117: x[1,_4,_2] + x[4,_1,_2] <= 1
 R118: x[2,_4,_2] + x[4,_2,_2] <= 1
 R119: x[3,_4,_2] + x[4,_3,_2] <= 1
 R120: x[4,_5,_2] + x[5,_4,_2] <= 1
 R121: x[4,_6,_2] + x[6,_4,_2] <= 1
 R122: x[0,_5,_2] + x[5,_0,_2] <= 1
 R123: x[1,_5,_2] + x[5,_1,_2] <= 1
 R124: x[2,_5,_2] + x[5,_2,_2] <= 1
 R125: x[3,_5,_2] + x[5,_3,_2] <= 1
 R126: x[4,_5,_2] + x[5,_4,_2] <= 1
 R127: x[5,_6,_2] + x[6,_5,_2] <= 1
 R128: x[0,_6,_2] + x[6,_0,_2] <= 1
 R129: x[1,_6,_2] + x[6,_1,_2] <= 1
 R130: x[2,_6,_2] + x[6,_2,_2] <= 1
 R131: x[3,_6,_2] + x[6,_3,_2] <= 1
 R132: x[4,_6,_2] + x[6,_4,_2] <= 1
 R133: x[5,_6,_2] + x[6,_5,_2] <= 1
 R134: x[0,_1,_3] + x[1,_0,_3] <= 1
 R135: x[0,_2,_3] + x[2,_0,_3] <= 1
 R136: x[0,_3,_3] + x[3,_0,_3] <= 1
 R137: x[0,_4,_3] + x[4,_0,_3] <= 1
 R138: x[0,_5,_3] + x[5,_0,_3] <= 1
 R139: x[0,_6,_3] + x[6,_0,_3] <= 1
 R140: x[0,_1,_3] + x[1,_0,_3] <= 1
 R141: x[1,_2,_3] + x[2,_1,_3] <= 1
 R142: x[1,_3,_3] + x[3,_1,_3] <= 1
 R143: x[1,_4,_3] + x[4,_1,_3] <= 1
 R144: x[1,_5,_3] + x[5,_1,_3] <= 1
 R145: x[1,_6,_3] + x[6,_1,_3] <= 1
 R146: x[0,_2,_3] + x[2,_0,_3] <= 1
 R147: x[1,_2,_3] + x[2,_1,_3] <= 1
 R148: x[2,_3,_3] + x[3,_2,_3] <= 1
 R149: x[2,_4,_3] + x[4,_2,_3] <= 1
 R150: x[2,_5,_3] + x[5,_2,_3] <= 1
 R151: x[2,_6,_3] + x[6,_2,_3] <= 1
 R152: x[0,_3,_3] + x[3,_0,_3] <= 1
 R153: x[1,_3,_3] + x[3,_1,_3] <= 1
 R154: x[2,_3,_3] + x[3,_2,_3] <= 1
 R155: x[3,_4,_3] + x[4,_3,_3] <= 1
 R156: x[3,_5,_3] + x[5,_3,_3] <= 1
 R157: x[3,_6,_3] + x[6,_3,_3] <= 1
 R158: x[0,_4,_3] + x[4,_0,_3] <= 1
 R159: x[1,_4,_3] + x[4,_1,_3] <= 1
 R160: x[2,_4,_3] + x[4,_2,_3] <= 1
 R161: x[3,_4,_3] + x[4,_3,_3] <= 1
 R162: x[4,_5,_3] + x[5,_4,_3] <= 1
 R163: x[4,_6,_3] + x[6,_4,_3] <= 1
 R164: x[0,_5,_3] + x[5,_0,_3] <= 1
 R165: x[1,_5,_3] + x[5,_1,_3] <= 1
 R166: x[2,_5,_3] + x[5,_2,_3] <= 1
 R167: x[3,_5,_3] + x[5,_3,_3] <= 1
 R168: x[4,_5,_3] + x[5,_4,_3] <= 1
 R169: x[5,_6,_3] + x[6,_5,_3] <= 1
 R170: x[0,_6,_3] + x[6,_0,_3] <= 1
 R171: x[1,_6,_3] + x[6,_1,_3] <= 1
 R172: x[2,_6,_3] + x[6,_2,_3] <= 1
 R173: x[3,_6,_3] + x[6,_3,_3] <= 1
 R174: x[4,_6,_3] + x[6,_4,_3] <= 1
 R175: x[5,_6,_3] + x[6,_5,_3] <= 1
 R176: x[1,_0,_0] + x[1,_0,_1] + x[1,_0,_2] + x[1,_0,_3] + x[2,_0,_0]
   + x[2,_0,_1] + x[2,_0,_2] + x[2,_0,_3] + x[3,_0,_0] + x[3,_0,_1]
   + x[3,_0,_2] + x[3,_0,_3] + x[4,_0,_0] + x[4,_0,_1] + x[4,_0,_2]
   + x[4,_0,_3] + x[5,_0,_0] + x[5,_0,_1] + x[5,_0,_2] + x[5,_0,_3]
   + x[6,_0,_0] + x[6,_0,_1] + x[6,_0,_2] + x[6,_0,_3] = 1
 R177: x[0,_1,_0] + x[0,_1,_1] + x[0,_1,_2] + x[0,_1,_3] + x[2,_1,_0]
   + x[2,_1,_1] + x[2,_1,_2] + x[2,_1,_3] + x[3,_1,_0] + x[3,_1,_1]
   + x[3,_1,_2] + x[3,_1,_3] + x[4,_1,_0] + x[4,_1,_1] + x[4,_1,_2]
   + x[4,_1,_3] + x[5,_1,_0] + x[5,_1,_1] + x[5,_1,_2] + x[5,_1,_3]
   + x[6,_1,_0] + x[6,_1,_1] + x[6,_1,_2] + x[6,_1,_3] = 1
 R178: x[0,_2,_0] + x[0,_2,_1] + x[0,_2,_2] + x[0,_2,_3] + x[1,_2,_0]
   + x[1,_2,_1] + x[1,_2,_2] + x[1,_2,_3] + x[3,_2,_0] + x[3,_2,_1]
   + x[3,_2,_2] + x[3,_2,_3] + x[4,_2,_0] + x[4,_2,_1] + x[4,_2,_2]
   + x[4,_2,_3] + x[5,_2,_0] + x[5,_2,_1] + x[5,_2,_2] + x[5,_2,_3]
   + x[6,_2,_0] + x[6,_2,_1] + x[6,_2,_2] + x[6,_2,_3] = 1
 R179: x[0,_3,_0] + x[0,_3,_1] + x[0,_3,_2] + x[0,_3,_3] + x[1,_3,_0]
   + x[1,_3,_1] + x[1,_3,_2] + x[1,_3,_3] + x[2,_3,_0] + x[2,_3,_1]
   + x[2,_3,_2] + x[2,_3,_3] + x[4,_3,_0] + x[4,_3,_1] + x[4,_3,_2]
   + x[4,_3,_3] + x[5,_3,_0] + x[5,_3,_1] + x[5,_3,_2] + x[5,_3,_3]
   + x[6,_3,_0] + x[6,_3,_1] + x[6,_3,_2] + x[6,_3,_3] = 1
 R180: x[0,_4,_0] + x[0,_4,_1] + x[0,_4,_2] + x[0,_4,_3] + x[1,_4,_0]
   + x[1,_4,_1] + x[1,_4,_2] + x[1,_4,_3] + x[2,_4,_0] + x[2,_4,_1]
   + x[2,_4,_2] + x[2,_4,_3] + x[3,_4,_0] + x[3,_4,_1] + x[3,_4,_2]
   + x[3,_4,_3] + x[5,_4,_0] + x[5,_4,_1] + x[5,_4,_2] + x[5,_4,_3]
   + x[6,_4,_0] + x[6,_4,_1] + x[6,_4,_2] + x[6,_4,_3] = 1
 R181: x[0,_5,_0] + x[0,_5,_1] + x[0,_5,_2] + x[0,_5,_3] + x[1,_5,_0]
   + x[1,_5,_1] + x[1,_5,_2] + x[1,_5,_3] + x[2,_5,_0] + x[2,_5,_1]
   + x[2,_5,_2] + x[2,_5,_3] + x[3,_5,_0] + x[3,_5,_1] + x[3,_5,_2]
   + x[3,_5,_3] + x[4,_5,_0] + x[4,_5,_1] + x[4,_5,_2] + x[4,_5,_3]
   + x[6,_5,_0] + x[6,_5,_1] + x[6,_5,_2] + x[6,_5,_3] = 1
 R182: x[0,_6,_0] + x[0,_6,_1] + x[0,_6,_2] + x[0,_6,_3] + x[1,_6,_0]
   + x[1,_6,_1] + x[1,_6,_2] + x[1,_6,_3] + x[2,_6,_0] + x[2,_6,_1]
   + x[2,_6,_2] + x[2,_6,_3] + x[3,_6,_0] + x[3,_6,_1] + x[3,_6,_2]
   + x[3,_6,_3] + x[4,_6,_0] + x[4,_6,_1] + x[4,_6,_2] + x[4,_6,_3]
   + x[5,_6,_0] + x[5,_6,_1] + x[5,_6,_2] + x[5,_6,_3] = 1
 R183: x[0,_1,_0] + x[0,_2,_0] + x[0,_3,_0] + x[0,_4,_0] + x[0,_5,_0]
   + x[0,_6,_0] - x[1,_0,_0] - x[2,_0,_0] - x[3,_0,_0] - x[4,_0,_0]
   - x[5,_0,_0] - x[6,_0,_0] = 0
 R184: - x[0,_1,_0] + x[1,_0,_0] + x[1,_2,_0] + x[1,_3,_0] + x[1,_4,_0]
   + x[1,_5,_0] + x[1,_6,_0] - x[2,_1,_0] - x[3,_1,_0] - x[4,_1,_0]
   - x[5,_1,_0] - x[6,_1,_0] = 0
 R185: - x[0,_2,_0] - x[1,_2,_0] + x[2,_0,_0] + x[2,_1,_0] + x[2,_3,_0]
   + x[2,_4,_0] + x[2,_5,_0] + x[2,_6,_0] - x[3,_2,_0] - x[4,_2,_0]
   - x[5,_2,_0] - x[6,_2,_0] = 0
 R186: - x[0,_3,_0] - x[1,_3,_0] - x[2,_3,_0] + x[3,_0,_0] + x[3,_1,_0]
   + x[3,_2,_0] + x[3,_4,_0] + x[3,_5,_0] + x[3,_6,_0] - x[4,_3,_0]
   - x[5,_3,_0] - x[6,_3,_0] = 0
 R187: - x[0,_4,_0] - x[1,_4,_0] - x[2,_4,_0] - x[3,_4,_0] + x[4,_0,_0]
   + x[4,_1,_0] + x[4,_2,_0] + x[4,_3,_0] + x[4,_5,_0] + x[4,_6,_0]
   - x[5,_4,_0] - x[6,_4,_0] = 0
 R188: - x[0,_5,_0] - x[1,_5,_0] - x[2,_5,_0] - x[3,_5,_0] - x[4,_5,_0]
   + x[5,_0,_0] + x[5,_1,_0] + x[5,_2,_0] + x[5,_3,_0] + x[5,_4,_0]
   + x[5,_6,_0] - x[6,_5,_0] = 0
 R189: - x[0,_6,_0] - x[1,_6,_0] - x[2,_6,_0] - x[3,_6,_0] - x[4,_6,_0]
   - x[5,_6,_0] + x[6,_0,_0] + x[6,_1,_0] + x[6,_2,_0] + x[6,_3,_0]
   + x[6,_4,_0] + x[6,_5,_0] = 0
 R190: x[0,_1,_1] + x[0,_2,_1] + x[0,_3,_1] + x[0,_4,_1] + x[0,_5,_1]
   + x[0,_6,_1] - x[1,_0,_1] - x[2,_0,_1] - x[3,_0,_1] - x[4,_0,_1]
   - x[5,_0,_1] - x[6,_0,_1] = 0
 R191: - x[0,_1,_1] + x[1,_0,_1] + x[1,_2,_1] + x[1,_3,_1] + x[1,_4,_1]
   + x[1,_5,_1] + x[1,_6,_1] - x[2,_1,_1] - x[3,_1,_1] - x[4,_1,_1]
   - x[5,_1,_1] - x[6,_1,_1] = 0
 R192: - x[0,_2,_1] - x[1,_2,_1] + x[2,_0,_1] + x[2,_1,_1] + x[2,_3,_1]
   + x[2,_4,_1] + x[2,_5,_1] + x[2,_6,_1] - x[3,_2,_1] - x[4,_2,_1]
   - x[5,_2,_1] - x[6,_2,_1] = 0
 R193: - x[0,_3,_1] - x[1,_3,_1] - x[2,_3,_1] + x[3,_0,_1] + x[3,_1,_1]
   + x[3,_2,_1] + x[3,_4,_1] + x[3,_5,_1] + x[3,_6,_1] - x[4,_3,_1]
   - x[5,_3,_1] - x[6,_3,_1] = 0
 R194: - x[0,_4,_1] - x[1,_4,_1] - x[2,_4,_1] - x[3,_4,_1] + x[4,_0,_1]
   + x[4,_1,_1] + x[4,_2,_1] + x[4,_3,_1] + x[4,_5,_1] + x[4,_6,_1]
   - x[5,_4,_1] - x[6,_4,_1] = 0
 R195: - x[0,_5,_1] - x[1,_5,_1] - x[2,_5,_1] - x[3,_5,_1] - x[4,_5,_1]
   + x[5,_0,_1] + x[5,_1,_1] + x[5,_2,_1] + x[5,_3,_1] + x[5,_4,_1]
   + x[5,_6,_1] - x[6,_5,_1] = 0
 R196: - x[0,_6,_1] - x[1,_6,_1] - x[2,_6,_1] - x[3,_6,_1] - x[4,_6,_1]
   - x[5,_6,_1] + x[6,_0,_1] + x[6,_1,_1] + x[6,_2,_1] + x[6,_3,_1]
   + x[6,_4,_1] + x[6,_5,_1] = 0
 R197: x[0,_1,_2] + x[0,_2,_2] + x[0,_3,_2] + x[0,_4,_2] + x[0,_5,_2]
   + x[0,_6,_2] - x[1,_0,_2] - x[2,_0,_2] - x[3,_0,_2] - x[4,_0,_2]
   - x[5,_0,_2] - x[6,_0,_2] = 0
 R198: - x[0,_1,_2] + x[1,_0,_2] + x[1,_2,_2] + x[1,_3,_2] + x[1,_4,_2]
   + x[1,_5,_2] + x[1,_6,_2] - x[2,_1,_2] - x[3,_1,_2] - x[4,_1,_2]
   - x[5,_1,_2] - x[6,_1,_2] = 0
 R199: - x[0,_2,_2] - x[1,_2,_2] + x[2,_0,_2] + x[2,_1,_2] + x[2,_3,_2]
   + x[2,_4,_2] + x[2,_5,_2] + x[2,_6,_2] - x[3,_2,_2] - x[4,_2,_2]
   - x[5,_2,_2] - x[6,_2,_2] = 0
 R200: - x[0,_3,_2] - x[1,_3,_2] - x[2,_3,_2] + x[3,_0,_2] + x[3,_1,_2]
   + x[3,_2,_2] + x[3,_4,_2] + x[3,_5,_2] + x[3,_6,_2] - x[4,_3,_2]
   - x[5,_3,_2] - x[6,_3,_2] = 0
 R201: - x[0,_4,_2] - x[1,_4,_2] - x[2,_4,_2] - x[3,_4,_2] + x[4,_0,_2]
   + x[4,_1,_2] + x[4,_2,_2] + x[4,_3,_2] + x[4,_5,_2] + x[4,_6,_2]
   - x[5,_4,_2] - x[6,_4,_2] = 0
 R202: - x[0,_5,_2] - x[1,_5,_2] - x[2,_5,_2] - x[3,_5,_2] - x[4,_5,_2]
   + x[5,_0,_2] + x[5,_1,_2] + x[5,_2,_2] + x[5,_3,_2] + x[5,_4,_2]
   + x[5,_6,_2] - x[6,_5,_2] = 0
 R203: - x[0,_6,_2] - x[1,_6,_2] - x[2,_6,_2] - x[3,_6,_2] - x[4,_6,_2]
   - x[5,_6,_2] + x[6,_0,_2] + x[6,_1,_2] + x[6,_2,_2] + x[6,_3,_2]
   + x[6,_4,_2] + x[6,_5,_2] = 0
 R204: x[0,_1,_3] + x[0,_2,_3] + x[0,_3,_3] + x[0,_4,_3] + x[0,_5,_3]
   + x[0,_6,_3] - x[1,_0,_3] - x[2,_0,_3] - x[3,_0,_3] - x[4,_0,_3]
   - x[5,_0,_3] - x[6,_0,_3] = 0
 R205: - x[0,_1,_3] + x[1,_0,_3] + x[1,_2,_3] + x[1,_3,_3] + x[1,_4,_3]
   + x[1,_5,_3] + x[1,_6,_3] - x[2,_1,_3] - x[3,_1,_3] - x[4,_1,_3]
   - x[5,_1,_3] - x[6,_1,_3] = 0
 R206: - x[0,_2,_3] - x[1,_2,_3] + x[2,_0,_3] + x[2,_1,_3] + x[2,_3,_3]
   + x[2,_4,_3] + x[2,_5,_3] + x[2,_6,_3] - x[3,_2,_3] - x[4,_2,_3]
   - x[5,_2,_3] - x[6,_2,_3] = 0
 R207: - x[0,_3,_3] - x[1,_3,_3] - x[2,_3,_3] + x[3,_0,_3] + x[3,_1,_3]
   + x[3,_2,_3] + x[3,_4,_3] + x[3,_5,_3] + x[3,_6,_3] - x[4,_3,_3]
   - x[5,_3,_3] - x[6,_3,_3] = 0
 R208: - x[0,_4,_3] - x[1,_4,_3] - x[2,_4,_3] - x[3,_4,_3] + x[4,_0,_3]
   + x[4,_1,_3] + x[4,_2,_3] + x[4,_3,_3] + x[4,_5,_3] + x[4,_6,_3]
   - x[5,_4,_3] - x[6,_4,_3] = 0
 R209: - x[0,_5,_3] - x[1,_5,_3] - x[2,_5,_3] - x[3,_5,_3] - x[4,_5,_3]
   + x[5,_0,_3] + x[5,_1,_3] + x[5,_2,_3] + x[5,_3,_3] + x[5,_4,_3]
   + x[5,_6,_3] - x[6,_5,_3] = 0
 R210: - x[0,_6,_3] - x[1,_6,_3] - x[2,_6,_3] - x[3,_6,_3] - x[4,_6,_3]
   - x[5,_6,_3] + x[6,_0,_3] + x[6,_1,_3] + x[6,_2,_3] + x[6,_3,_3]
   + x[6,_4,_3] + x[6,_5,_3] = 0
 R211: x[1,_2,_0] + x[1,_3,_0] + x[1,_4,_0] + x[1,_5,_0] + x[1,_6,_0]
   + x[2,_1,_0] + x[2,_3,_0] + x[2,_4,_0] + x[2,_5,_0] + x[2,_6,_0]
   + x[3,_1,_0] + x[3,_2,_0] + x[3,_4,_0] + x[3,_5,_0] + x[3,_6,_0]
   + x[4,_1,_0] + x[4,_2,_0] + x[4,_3,_0] + x[4,_5,_0] + x[4,_6,_0]
   + x[5,_1,_0] + x[5,_2,_0] + x[5,_3,_0] + x[5,_4,_0] + x[5,_6,_0]
   + x[6,_1,_0] + x[6,_2,_0] + x[6,_3,_0] + x[6,_4,_0] + x[6,_5,_0] <= 5
 R212: x[1,_2,_1] + x[1,_3,_1] + x[1,_4,_1] + x[1,_5,_1] + x[1,_6,_1]
   + x[2,_1,_1] + x[2,_3,_1] + x[2,_4,_1] + x[2,_5,_1] + x[2,_6,_1]
   + x[3,_1,_1] + x[3,_2,_1] + x[3,_4,_1] + x[3,_5,_1] + x[3,_6,_1]
   + x[4,_1,_1] + x[4,_2,_1] + x[4,_3,_1] + x[4,_5,_1] + x[4,_6,_1]
   + x[5,_1,_1] + x[5,_2,_1] + x[5,_3,_1] + x[5,_4,_1] + x[5,_6,_1]
   + x[6,_1,_1] + x[6,_2,_1] + x[6,_3,_1] + x[6,_4,_1] + x[6,_5,_1] <= 5
 R213: x[1,_2,_2] + x[1,_3,_2] + x[1,_4,_2] + x[1,_5,_2] + x[1,_6,_2]
   + x[2,_1,_2] + x[2,_3,_2] + x[2,_4,_2] + x[2,_5,_2] + x[2,_6,_2]
   + x[3,_1,_2] + x[3,_2,_2] + x[3,_4,_2] + x[3,_5,_2] + x[3,_6,_2]
   + x[4,_1,_2] + x[4,_2,_2] + x[4,_3,_2] + x[4,_5,_2] + x[4,_6,_2]
   + x[5,_1,_2] + x[5,_2,_2] + x[5,_3,_2] + x[5,_4,_2] + x[5,_6,_2]
   + x[6,_1,_2] + x[6,_2,_2] + x[6,_3,_2] + x[6,_4,_2] + x[6,_5,_2] <= 5
 R214: x[1,_2,_3] + x[1,_3,_3] + x[1,_4,_3] + x[1,_5,_3] + x[1,_6,_3]
   + x[2,_1,_3] + x[2,_3,_3] + x[2,_4,_3] + x[2,_5,_3] + x[2,_6,_3]
   + x[3,_1,_3] + x[3,_2,_3] + x[3,_4,_3] + x[3,_5,_3] + x[3,_6,_3]
   + x[4,_1,_3] + x[4,_2,_3] + x[4,_3,_3] + x[4,_5,_3] + x[4,_6,_3]
   + x[5,_1,_3] + x[5,_2,_3] + x[5,_3,_3] + x[5,_4,_3] + x[5,_6,_3]
   + x[6,_1,_3] + x[6,_2,_3] + x[6,_3,_3] + x[6,_4,_3] + x[6,_5,_3] <= 5
Bounds
Binaries
 x[0,_1,_0] x[0,_1,_1] x[0,_1,_2] x[0,_1,_3] x[0,_2,_0] x[0,_2,_1]
 x[0,_2,_2] x[0,_2,_3] x[0,_3,_0] x[0,_3,_1] x[0,_3,_2] x[0,_3,_3]
 x[0,_4,_0] x[0,_4,_1] x[0,_4,_2] x[0,_4,_3] x[0,_5,_0] x[0,_5,_1]
 x[0,_5,_2] x[0,_5,_3] x[0,_6,_0] x[0,_6,_1] x[0,_6,_2] x[0,_6,_3]
 x[1,_0,_0] x[1,_0,_1] x[1,_0,_2] x[1,_0,_3] x[1,_2,_0] x[1,_2,_1]
 x[1,_2,_2] x[1,_2,_3] x[1,_3,_0] x[1,_3,_1] x[1,_3,_2] x[1,_3,_3]
 x[1,_4,_0] x[1,_4,_1] x[1,_4,_2] x[1,_4,_3] x[1,_5,_0] x[1,_5,_1]
 x[1,_5,_2] x[1,_5,_3] x[1,_6,_0] x[1,_6,_1] x[1,_6,_2] x[1,_6,_3]
 x[2,_0,_0] x[2,_0,_1] x[2,_0,_2] x[2,_0,_3] x[2,_1,_0] x[2,_1,_1]
 x[2,_1,_2] x[2,_1,_3] x[2,_3,_0] x[2,_3,_1] x[2,_3,_2] x[2,_3,_3]
 x[2,_4,_0] x[2,_4,_1] x[2,_4,_2] x[2,_4,_3] x[2,_5,_0] x[2,_5,_1]
 x[2,_5,_2] x[2,_5,_3] x[2,_6,_0] x[2,_6,_1] x[2,_6,_2] x[2,_6,_3]
 x[3,_0,_0] x[3,_0,_1] x[3,_0,_2] x[3,_0,_3] x[3,_1,_0] x[3,_1,_1]
 x[3,_1,_2] x[3,_1,_3] x[3,_2,_0] x[3,_2,_1] x[3,_2,_2] x[3,_2,_3]
 x[3,_4,_0] x[3,_4,_1] x[3,_4,_2] x[3,_4,_3] x[3,_5,_0] x[3,_5,_1]
 x[3,_5,_2] x[3,_5,_3] x[3,_6,_0] x[3,_6,_1] x[3,_6,_2] x[3,_6,_3]
 x[4,_0,_0] x[4,_0,_1] x[4,_0,_2] x[4,_0,_3] x[4,_1,_0] x[4,_1,_1]
 x[4,_1,_2] x[4,_1,_3] x[4,_2,_0] x[4,_2,_1] x[4,_2,_2] x[4,_2,_3]
 x[4,_3,_0] x[4,_3,_1] x[4,_3,_2] x[4,_3,_3] x[4,_5,_0] x[4,_5,_1]
 x[4,_5,_2] x[4,_5,_3] x[4,_6,_0] x[4,_6,_1] x[4,_6,_2] x[4,_6,_3]
 x[5,_0,_0] x[5,_0,_1] x[5,_0,_2] x[5,_0,_3] x[5,_1,_0] x[5,_1,_1]
 x[5,_1,_2] x[5,_1,_3] x[5,_2,_0] x[5,_2,_1] x[5,_2,_2] x[5,_2,_3]
 x[5,_3,_0] x[5,_3,_1] x[5,_3,_2] x[5,_3,_3] x[5,_4,_0] x[5,_4,_1]
 x[5,_4,_2] x[5,_4,_3] x[5,_6,_0] x[5,_6,_1] x[5,_6,_2] x[5,_6,_3]
 x[6,_0,_0] x[6,_0,_1] x[6,_0,_2] x[6,_0,_3] x[6,_1,_0] x[6,_1,_1]
 x[6,_1,_2] x[6,_1,_3] x[6,_2,_0] x[6,_2,_1] x[6,_2,_2] x[6,_2,_3]
 x[6,_3,_0] x[6,_3,_1] x[6,_3,_2] x[6,_3,_3] x[6,_4,_0] x[6,_4,_1]
 x[6,_4,_2] x[6,_4,_3] x[6,_5,_0] x[6,_5,_1] x[6,_5,_2] x[6,_5,_3]
End
